2000, 3999997000
4002001, 216
4002002, 525
4002003, 553
4002004, 630
4002005, 56
4002006, 215
4002007, 748
4002008, 325
4002009, 273
4002010, 863
4002011, 425
4002012, 777
4002013, 146
4002014, 515
4002015, 27
4002016, 105
4002017, 704
4002018, 950
4002019, 28
4002020, 249
4002021, 494
4002022, 810
4002023, 141
4002024, 150
4002025, 653
4002026, 893
4002027, 779
4002028, 661
4002029, 373
4002030, 248
4002031, 474
4002032, 872
4002033, 409
4002034, 522
4002035, 558
4002036, 208
4002037, 927
4002038, 785
4002039, 453
4002040, 891
4002041, 445
4002042, 721
4002043, 158
4002044, 407
4002045, 565
4002046, 338
4002047, 355
4002048, 133
4002049, 353
4002050, 861
4002051, 810
4002052, 982
4002053, 382
4002054, 47
4002055, 32
4002056, 849
4002057, 821
4002058, 949
4002059, 276
4002060, 298
4002061, 613
4002062, 414
4002063, 314
4002064, 140
4002065, 370
4002066, 76
4002067, 796
4002068, 968
4002069, 401
4002070, 602
4002071, 858
4002072, 267
4002073, 521
4002074, 854
4002075, 747
4002076, 723
4002077, 386
4002078, 32
4002079, 321
4002080, 162
4002081, 177
4002082, 249
4002083, 481
4002084, 249
4002085, 506
4002086, 917
4002087, 136
4002088, 598
4002089, 948
4002090, 833
4002091, 606
4002092, 886
4002093, 904
4002094, 372
4002095, 974
4002096, 187
4002097, 490
4002098, 473
4002099, 348
4002100, 6
4002101, 542
4002102, 67
4002103, 749
4002104, 917
4002105, 531
4002106, 8
4002107, 82
4002108, 590
4002109, 403
4002110, 159
4002111, 172
4002112, 970
4002113, 136
4002114, 377
4002115, 161
4002116, 834
4002117, 400
4002118, 58
4002119, 325
4002120, 301
4002121, 42
4002122, 248
4002123, 393
4002124, 920
4002125, 831
4002126, 315
4002127, 304
4002128, 787
4002129, 41
4002130, 491
4002131, 444
4002132, 594
4002133, 430
4002134, 269
4002135, 349
4002136, 353
4002137, 885
4002138, 934
4002139, 722
4002140, 991
4002141, 511
4002142, 125
4002143, 925
4002144, 659
4002145, 271
4002146, 173
4002147, 42
4002148, 578
4002149, 122
4002150, 376
4002151, 808
4002152, 342
4002153, 991
4002154, 300
4002155, 278
4002156, 119
4002157, 832
4002158, 370
4002159, 239
4002160, 334
4002161, 127
4002162, 121
4002163, 862
4002164, 612
4002165, 129
4002166, 511
4002167, 18
4002168, 135
4002169, 278
4002170, 312
4002171, 658
4002172, 485
4002173, 934
4002174, 556
4002175, 666
4002176, 447
4002177, 997
4002178, 581
4002179, 588
4002180, 263
4002181, 671
4002182, 430
4002183, 687
4002184, 745
4002185, 820
4002186, 628
4002187, 243
4002188, 565
4002189, 997
4002190, 480
4002191, 322
4002192, 499
4002193, 788
4002194, 547
4002195, 985
4002196, 245
4002197, 864
4002198, 273
4002199, 268
4002200, 432
4002201, 238
4002202, 990
4002203, 932
4002204, 634
4002205, 360
4002206, 403
4002207, 180
4002208, 245
4002209, 833
4002210, 177
4002211, 463
4002212, 418
4002213, 439
4002214, 444
4002215, 436
4002216, 895
4002217, 447
4002218, 401
4002219, 282
4002220, 817
4002221, 300
4002222, 327
4002223, 787
4002224, 498
4002225, 424
4002226, 514
4002227, 188
4002228, 995
4002229, 329
4002230, 915
4002231, 803
4002232, 194
4002233, 565
4002234, 784
4002235, 864
4002236, 149
4002237, 989
4002238, 602
4002239, 76
4002240, 565
4002241, 117
4002242, 697
4002243, 260
4002244, 788
4002245, 810
4002246, 466
4002247, 630
4002248, 406
4002249, 530
4002250, 625
4002251, 434
4002252, 115
4002253, 463
4002254, 382
4002255, 377
4002256, 635
4002257, 668
4002258, 548
4002259, 673
4002260, 856
4002261, 990
4002262, 349
4002263, 248
4002264, 895
4002265, 699
4002266, 543
4002267, 436
4002268, 679
4002269, 606
4002270, 713
4002271, 824
4002272, 39
4002273, 144
4002274, 886
4002275, 953
4002276, 956
4002277, 320
4002278, 960
4002279, 245
4002280, 432
4002281, 340
4002282, 557
4002283, 386
4002284, 436
4002285, 365
4002286, 62
4002287, 661
4002288, 982
4002289, 95
4002290, 674
4002291, 672
4002292, 739
4002293, 453
4002294, 327
4002295, 657
4002296, 878
4002297, 689
4002298, 121
4002299, 465
4002300, 430
4002301, 985
4002302, 288
4002303, 530
4002304, 36
4002305, 875
4002306, 734
4002307, 48
4002308, 994
4002309, 897
4002310, 382
4002311, 569
4002312, 708
4002313, 429
4002314, 246
4002315, 284
4002316, 162
4002317, 486
4002318, 549
4002319, 141
4002320, 508
4002321, 864
4002322, 813
4002323, 159
4002324, 636
4002325, 704
4002326, 345
4002327, 480
4002328, 863
4002329, 381
4002330, 864
4002331, 456
4002332, 891
4002333, 848
4002334, 448
4002335, 89
4002336, 762
4002337, 492
4002338, 507
4002339, 856
4002340, 558
4002341, 86
4002342, 301
4002343, 970
4002344, 274
4002345, 741
4002346, 763
4002347, 151
4002348, 614
4002349, 34
4002350, 476
4002351, 226
4002352, 579
4002353, 553
4002354, 556
4002355, 479
4002356, 763
4002357, 654
4002358, 292
4002359, 539
4002360, 530
4002361, 809
4002362, 162
4002363, 591
4002364, 279
4002365, 202
4002366, 775
4002367, 373
4002368, 59
4002369, 932
4002370, 916
4002371, 577
4002372, 360
4002373, 813
4002374, 851
4002375, 336
4002376, 106
4002377, 44
4002378, 219
4002379, 636
4002380, 545
4002381, 266
4002382, 868
4002383, 925
4002384, 213
4002385, 729
4002386, 446
4002387, 937
4002388, 896
4002389, 199
4002390, 934
4002391, 172
4002392, 847
4002393, 19
4002394, 465
4002395, 64
4002396, 321
4002397, 303
4002398, 903
4002399, 974
4002400, 213
4002401, 972
4002402, 264
4002403, 699
4002404, 496
4002405, 496
4002406, 274
4002407, 668
4002408, 956
4002409, 867
4002410, 880
4002411, 145
4002412, 546
4002413, 196
4002414, 756
4002415, 45
4002416, 457
4002417, 200
4002418, 933
4002419, 3
4002420, 99
4002421, 188
4002422, 449
4002423, 34
4002424, 478
4002425, 581
4002426, 548
4002427, 242
4002428, 289
4002429, 583
4002430, 47
4002431, 565
4002432, 98
4002433, 226
4002434, 449
4002435, 902
4002436, 390
4002437, 926
4002438, 953
4002439, 692
4002440, 161
4002441, 808
4002442, 945
4002443, 119
4002444, 17
4002445, 634
4002446, 187
4002447, 898
4002448, 758
4002449, 470
4002450, 177
4002451, 271
4002452, 829
4002453, 59
4002454, 916
4002455, 117
4002456, 288
4002457, 830
4002458, 107
4002459, 581
4002460, 662
4002461, 786
4002462, 766
4002463, 408
4002464, 345
4002465, 768
4002466, 223
4002467, 226
4002468, 187
4002469, 551
4002470, 719
4002471, 634
4002472, 7
4002473, 357
4002474, 543
4002475, 751
4002476, 102
4002477, 771
4002478, 371
4002479, 436
4002480, 878
4002481, 812
4002482, 416
4002483, 540
4002484, 780
4002485, 933
4002486, 487
4002487, 974
4002488, 219
4002489, 255
4002490, 911
4002491, 153
4002492, 467
4002493, 720
4002494, 862
4002495, 601
4002496, 362
4002497, 653
4002498, 72
4002499, 264
4002500, 333
4002501, 835
4002502, 830
4002503, 245
4002504, 16
4002505, 208
4002506, 392
4002507, 672
4002508, 481
4002509, 742
4002510, 268
4002511, 483
4002512, 137
4002513, 544
4002514, 659
4002515, 2
4002516, 226
4002517, 835
4002518, 706
4002519, 259
4002520, 329
4002521, 326
4002522, 102
4002523, 198
4002524, 685
4002525, 513
4002526, 479
4002527, 110
4002528, 38
4002529, 953
4002530, 13
4002531, 446
4002532, 798
4002533, 770
4002534, 926
4002535, 213
4002536, 131
4002537, 371
4002538, 861
4002539, 146
4002540, 370
4002541, 989
4002542, 388
4002543, 287
4002544, 37
4002545, 284
4002546, 635
4002547, 745
4002548, 94
4002549, 196
4002550, 445
4002551, 838
4002552, 137
4002553, 300
4002554, 234
4002555, 365
4002556, 309
4002557, 894
4002558, 7
4002559, 81
4002560, 227
4002561, 460
4002562, 647
4002563, 6
4002564, 717
4002565, 4
4002566, 293
4002567, 906
4002568, 824
4002569, 13
4002570, 159
4002571, 340
4002572, 305
4002573, 751
4002574, 380
4002575, 336
4002576, 451
4002577, 695
4002578, 838
4002579, 817
4002580, 16
4002581, 552
4002582, 105
4002583, 797
4002584, 539
4002585, 522
4002586, 153
4002587, 492
4002588, 467
4002589, 326
4002590, 479
4002591, 809
4002592, 930
4002593, 359
4002594, 660
4002595, 551
4002596, 194
4002597, 234
4002598, 708
4002599, 12
4002600, 870
4002601, 278
4002602, 269
4002603, 697
4002604, 615
4002605, 493
4002606, 300
4002607, 327
4002608, 68
4002609, 616
4002610, 662
4002611, 850
4002612, 936
4002613, 335
4002614, 668
4002615, 26
4002616, 631
4002617, 806
4002618, 101
4002619, 29
4002620, 224
4002621, 56
4002622, 592
4002623, 518
4002624, 660
4002625, 288
4002626, 822
4002627, 441
4002628, 717
4002629, 154
4002630, 412
4002631, 811
4002632, 224
4002633, 70
4002634, 614
4002635, 262
4002636, 267
4002637, 573
4002638, 965
4002639, 858
4002640, 46
4002641, 289
4002642, 730
4002643, 709
4002644, 982
4002645, 281
4002646, 136
4002647, 460
4002648, 93
4002649, 218
4002650, 773
4002651, 935
4002652, 67
4002653, 486
4002654, 864
4002655, 104
4002656, 144
4002657, 489
4002658, 12
4002659, 836
4002660, 894
4002661, 678
4002662, 532
4002663, 528
4002664, 555
4002665, 638
4002666, 524
4002667, 940
4002668, 220
4002669, 256
4002670, 454
4002671, 579
4002672, 939
4002673, 602
4002674, 794
4002675, 529
4002676, 362
4002677, 158
4002678, 51
4002679, 75
4002680, 245
4002681, 221
4002682, 649
4002683, 626
4002684, 124
4002685, 983
4002686, 305
4002687, 199
4002688, 757
4002689, 152
4002690, 278
4002691, 656
4002692, 637
4002693, 5
4002694, 827
4002695, 185
4002696, 416
4002697, 940
4002698, 662
4002699, 708
4002700, 156
4002701, 503
4002702, 231
4002703, 705
4002704, 930
4002705, 305
4002706, 542
4002707, 893
4002708, 244
4002709, 942
4002710, 703
4002711, 15
4002712, 200
4002713, 391
4002714, 825
4002715, 406
4002716, 642
4002717, 75
4002718, 634
4002719, 332
4002720, 461
4002721, 335
4002722, 804
4002723, 453
4002724, 19
4002725, 423
4002726, 699
4002727, 136
4002728, 904
4002729, 298
4002730, 21
4002731, 36
4002732, 650
4002733, 801
4002734, 528
4002735, 636
4002736, 523
4002737, 919
4002738, 670
4002739, 403
4002740, 533
4002741, 18
4002742, 291
4002743, 112
4002744, 92
4002745, 984
4002746, 869
4002747, 531
4002748, 328
4002749, 499
4002750, 771
4002751, 109
4002752, 407
4002753, 837
4002754, 735
4002755, 492
4002756, 687
4002757, 204
4002758, 347
4002759, 796
4002760, 641
4002761, 638
4002762, 879
4002763, 118
4002764, 22
4002765, 22
4002766, 697
4002767, 652
4002768, 606
4002769, 477
4002770, 866
4002771, 970
4002772, 980
4002773, 584
4002774, 543
4002775, 783
4002776, 819
4002777, 176
4002778, 478
4002779, 465
4002780, 939
4002781, 861
4002782, 292
4002783, 372
4002784, 700
4002785, 586
4002786, 613
4002787, 739
4002788, 248
4002789, 524
4002790, 660
4002791, 533
4002792, 269
4002793, 378
4002794, 973
4002795, 985
4002796, 41
4002797, 654
4002798, 954
4002799, 761
4002800, 20
4002801, 65
4002802, 763
4002803, 266
4002804, 80
4002805, 682
4002806, 652
4002807, 130
4002808, 684
4002809, 864
4002810, 506
4002811, 176
4002812, 860
4002813, 571
4002814, 389
4002815, 88
4002816, 474
4002817, 638
4002818, 792
4002819, 588
4002820, 456
4002821, 831
4002822, 548
4002823, 283
4002824, 603
4002825, 677
4002826, 224
4002827, 501
4002828, 241
4002829, 369
4002830, 259
4002831, 812
4002832, 795
4002833, 581
4002834, 631
4002835, 140
4002836, 659
4002837, 127
4002838, 824
4002839, 555
4002840, 255
4002841, 318
4002842, 803
4002843, 457
4002844, 116
4002845, 211
4002846, 151
4002847, 977
4002848, 538
4002849, 497
4002850, 694
4002851, 614
4002852, 414
4002853, 350
4002854, 956
4002855, 726
4002856, 3
4002857, 959
4002858, 135
4002859, 546
4002860, 864
4002861, 615
4002862, 701
4002863, 515
4002864, 788
4002865, 152
4002866, 328
4002867, 294
4002868, 588
4002869, 895
4002870, 44
4002871, 144
4002872, 300
4002873, 812
4002874, 711
4002875, 563
4002876, 817
4002877, 55
4002878, 48
4002879, 991
4002880, 925
4002881, 940
4002882, 993
4002883, 416
4002884, 642
4002885, 271
4002886, 725
4002887, 262
4002888, 949
4002889, 344
4002890, 641
4002891, 1
4002892, 940
4002893, 288
4002894, 734
4002895, 792
4002896, 208
4002897, 122
4002898, 405
4002899, 417
4002900, 12
4002901, 50
4002902, 97
4002903, 51
4002904, 115
4002905, 801
4002906, 784
4002907, 485
4002908, 61
4002909, 614
4002910, 986
4002911, 466
4002912, 650
4002913, 749
4002914, 400
4002915, 557
4002916, 460
4002917, 28
4002918, 477
4002919, 364
4002920, 641
4002921, 881
4002922, 336
4002923, 343
4002924, 111
4002925, 981
4002926, 392
4002927, 913
4002928, 70
4002929, 243
4002930, 470
4002931, 854
4002932, 369
4002933, 248
4002934, 798
4002935, 59
4002936, 876
4002937, 780
4002938, 349
4002939, 177
4002940, 143
4002941, 624
4002942, 20
4002943, 666
4002944, 553
4002945, 70
4002946, 19
4002947, 978
4002948, 525
4002949, 716
4002950, 902
4002951, 838
4002952, 48
4002953, 856
4002954, 603
4002955, 816
4002956, 184
4002957, 124
4002958, 810
4002959, 320
4002960, 438
4002961, 779
4002962, 643
4002963, 148
4002964, 260
4002965, 82
4002966, 251
4002967, 840
4002968, 200
4002969, 888
4002970, 510
4002971, 462
4002972, 631
4002973, 125
4002974, 230
4002975, 759
4002976, 770
4002977, 670
4002978, 666
4002979, 64
4002980, 35
4002981, 783
4002982, 167
4002983, 894
4002984, 976
4002985, 967
4002986, 850
4002987, 489
4002988, 423
4002989, 231
4002990, 148
4002991, 940
4002992, 168
4002993, 986
4002994, 276
4002995, 131
4002996, 238
4002997, 278
4002998, 200
4002999, 587
4003000, 669
4003001, 930
4003002, 188
4003003, 860
4003004, 757
4003005, 565
4003006, 560
4003007, 2
4003008, 805
4003009, 525
4003010, 693
4003011, 831
4003012, 448
4003013, 93
4003014, 376
4003015, 579
4003016, 707
4003017, 636
4003018, 174
4003019, 308
4003020, 988
4003021, 749
4003022, 998
4003023, 941
4003024, 620
4003025, 985
4003026, 994
4003027, 811
4003028, 493
4003029, 294
4003030, 109
4003031, 498
4003032, 869
4003033, 867
4003034, 533
4003035, 788
4003036, 17
4003037, 409
4003038, 626
4003039, 778
4003040, 178
4003041, 739
4003042, 429
4003043, 568
4003044, 859
4003045, 326
4003046, 809
4003047, 725
4003048, 831
4003049, 473
4003050, 229
4003051, 336
4003052, 103
4003053, 830
4003054, 184
4003055, 115
4003056, 522
4003057, 63
4003058, 883
4003059, 876
4003060, 587
4003061, 505
4003062, 98
4003063, 647
4003064, 439
4003065, 259
4003066, 258
4003067, 908
4003068, 683
4003069, 63
4003070, 268
4003071, 606
4003072, 561
4003073, 416
4003074, 232
4003075, 146
4003076, 891
4003077, 218
4003078, 315
4003079, 916
4003080, 710
4003081, 357
4003082, 201
4003083, 269
4003084, 209
4003085, 362
4003086, 938
4003087, 103
4003088, 563
4003089, 75
4003090, 953
4003091, 350
4003092, 495
4003093, 327
4003094, 87
4003095, 528
4003096, 227
4003097, 331
4003098, 468
4003099, 806
4003100, 580
4003101, 369
4003102, 886
4003103, 712
4003104, 771
4003105, 460
4003106, 112
4003107, 540
4003108, 202
4003109, 842
4003110, 500
4003111, 496
4003112, 191
4003113, 424
4003114, 664
4003115, 155
4003116, 8
4003117, 857
4003118, 525
4003119, 7
4003120, 781
4003121, 871
4003122, 314
4003123, 681
4003124, 273
4003125, 120
4003126, 261
4003127, 399
4003128, 225
4003129, 241
4003130, 810
4003131, 752
4003132, 122
4003133, 294
4003134, 577
4003135, 559
4003136, 558
4003137, 160
4003138, 548
4003139, 968
4003140, 247
4003141, 316
4003142, 118
4003143, 769
4003144, 890
4003145, 330
4003146, 972
4003147, 434
4003148, 558
4003149, 67
4003150, 647
4003151, 797
4003152, 930
4003153, 570
4003154, 56
4003155, 926
4003156, 521
4003157, 244
4003158, 738
4003159, 467
4003160, 545
4003161, 623
4003162, 892
4003163, 316
4003164, 271
4003165, 598
4003166, 236
4003167, 188
4003168, 892
4003169, 866
4003170, 636
4003171, 525
4003172, 963
4003173, 674
4003174, 431
4003175, 536
4003176, 680
4003177, 4
4003178, 588
4003179, 186
4003180, 969
4003181, 345
4003182, 546
4003183, 392
4003184, 41
4003185, 164
4003186, 546
4003187, 195
4003188, 632
4003189, 27
4003190, 568
4003191, 644
4003192, 123
4003193, 676
4003194, 202
4003195, 9
4003196, 338
4003197, 57
4003198, 518
4003199, 333
4003200, 516
4003201, 460
4003202, 144
4003203, 796
4003204, 300
4003205, 579
4003206, 665
4003207, 59
4003208, 199
4003209, 196
4003210, 112
4003211, 996
4003212, 435
4003213, 25
4003214, 173
4003215, 239
4003216, 313
4003217, 917
4003218, 240
4003219, 130
4003220, 372
4003221, 757
4003222, 462
4003223, 858
4003224, 336
4003225, 528
4003226, 348
4003227, 551
4003228, 763
4003229, 7
4003230, 769
4003231, 179
4003232, 758
4003233, 149
4003234, 720
4003235, 483
4003236, 139
4003237, 775
4003238, 603
4003239, 780
4003240, 577
4003241, 244
4003242, 272
4003243, 966
4003244, 163
4003245, 373
4003246, 576
4003247, 228
4003248, 508
4003249, 494
4003250, 698
4003251, 226
4003252, 959
4003253, 827
4003254, 20
4003255, 741
4003256, 414
4003257, 211
4003258, 210
4003259, 454
4003260, 914
4003261, 928
4003262, 860
4003263, 655
4003264, 266
4003265, 405
4003266, 828
4003267, 27
4003268, 649
4003269, 38
4003270, 213
4003271, 514
4003272, 948
4003273, 610
4003274, 589
4003275, 818
4003276, 761
4003277, 84
4003278, 139
4003279, 382
4003280, 10
4003281, 829
4003282, 385
4003283, 611
4003284, 519
4003285, 83
4003286, 994
4003287, 62
4003288, 887
4003289, 197
4003290, 596
4003291, 518
4003292, 223
4003293, 221
4003294, 295
4003295, 767
4003296, 584
4003297, 996
4003298, 780
4003299, 765
4003300, 965
4003301, 688
4003302, 71
4003303, 285
4003304, 410
4003305, 360
4003306, 485
4003307, 79
4003308, 350
4003309, 406
4003310, 550
4003311, 62
4003312, 337
4003313, 492
4003314, 691
4003315, 13
4003316, 638
4003317, 911
4003318, 984
4003319, 827
4003320, 930
4003321, 495
4003322, 979
4003323, 480
4003324, 754
4003325, 428
4003326, 171
4003327, 669
4003328, 176
4003329, 98
4003330, 201
4003331, 832
4003332, 839
4003333, 717
4003334, 753
4003335, 293
4003336, 770
4003337, 933
4003338, 18
4003339, 301
4003340, 936
4003341, 819
4003342, 809
4003343, 722
4003344, 442
4003345, 674
4003346, 322
4003347, 768
4003348, 291
4003349, 462
4003350, 823
4003351, 62
4003352, 278
4003353, 7
4003354, 270
4003355, 386
4003356, 388
4003357, 967
4003358, 398
4003359, 816
4003360, 11
4003361, 743
4003362, 234
4003363, 979
4003364, 679
4003365, 534
4003366, 548
4003367, 386
4003368, 268
4003369, 145
4003370, 330
4003371, 428
4003372, 889
4003373, 979
4003374, 317
4003375, 291
4003376, 46
4003377, 670
4003378, 845
4003379, 797
4003380, 566
4003381, 800
4003382, 149
4003383, 973
4003384, 646
4003385, 511
4003386, 324
4003387, 366
4003388, 43
4003389, 284
4003390, 658
4003391, 208
4003392, 927
4003393, 108
4003394, 422
4003395, 416
4003396, 133
4003397, 561
4003398, 262
4003399, 444
4003400, 856
4003401, 676
4003402, 503
4003403, 892
4003404, 487
4003405, 575
4003406, 872
4003407, 162
4003408, 347
4003409, 162
4003410, 787
4003411, 138
4003412, 535
4003413, 13
4003414, 28
4003415, 146
4003416, 567
4003417, 486
4003418, 711
4003419, 235
4003420, 745
4003421, 61
4003422, 981
4003423, 725
4003424, 582
4003425, 895
4003426, 799
4003427, 798
4003428, 601
4003429, 456
4003430, 409
4003431, 324
4003432, 686
4003433, 7
4003434, 368
4003435, 749
4003436, 924
4003437, 741
4003438, 828
4003439, 38
4003440, 651
4003441, 701
4003442, 830
4003443, 217
4003444, 982
4003445, 829
4003446, 531
4003447, 700
4003448, 994
4003449, 916
4003450, 630
4003451, 737
4003452, 77
4003453, 897
4003454, 881
4003455, 896
4003456, 991
4003457, 394
4003458, 644
4003459, 189
4003460, 643
4003461, 882
4003462, 596
4003463, 472
4003464, 974
4003465, 728
4003466, 997
4003467, 656
4003468, 679
4003469, 151
4003470, 912
4003471, 343
4003472, 845
4003473, 336
4003474, 317
4003475, 440
4003476, 860
4003477, 961
4003478, 289
4003479, 603
4003480, 559
4003481, 353
4003482, 97
4003483, 624
4003484, 311
4003485, 745
4003486, 869
4003487, 999
4003488, 466
4003489, 980
4003490, 398
4003491, 878
4003492, 964
4003493, 255
4003494, 887
4003495, 346
4003496, 665
4003497, 953
4003498, 46
4003499, 476
4003500, 400
4003501, 195
4003502, 852
4003503, 653
4003504, 497
4003505, 809
4003506, 625
4003507, 641
4003508, 839
4003509, 191
4003510, 960
4003511, 600
4003512, 47
4003513, 781
4003514, 153
4003515, 480
4003516, 743
4003517, 603
4003518, 649
4003519, 68
4003520, 759
4003521, 756
4003522, 131
4003523, 567
4003524, 50
4003525, 991
4003526, 906
4003527, 849
4003528, 6
4003529, 801
4003530, 604
4003531, 432
4003532, 399
4003533, 195
4003534, 840
4003535, 632
4003536, 215
4003537, 10
4003538, 552
4003539, 203
4003540, 297
4003541, 137
4003542, 839
4003543, 49
4003544, 537
4003545, 560
4003546, 220
4003547, 161
4003548, 997
4003549, 184
4003550, 165
4003551, 461
4003552, 638
4003553, 180
4003554, 804
4003555, 18
4003556, 335
4003557, 778
4003558, 429
4003559, 277
4003560, 852
4003561, 687
4003562, 765
4003563, 246
4003564, 652
4003565, 278
4003566, 516
4003567, 232
4003568, 920
4003569, 457
4003570, 107
4003571, 622
4003572, 985
4003573, 622
4003574, 503
4003575, 88
4003576, 644
4003577, 874
4003578, 27
4003579, 555
4003580, 889
4003581, 489
4003582, 321
4003583, 636
4003584, 911
4003585, 172
4003586, 450
4003587, 949
4003588, 842
4003589, 648
4003590, 72
4003591, 230
4003592, 13
4003593, 173
4003594, 419
4003595, 53
4003596, 232
4003597, 540
4003598, 312
4003599, 157
4003600, 674
4003601, 760
4003602, 835
4003603, 571
4003604, 487
4003605, 557
4003606, 6
4003607, 883
4003608, 138
4003609, 388
4003610, 199
4003611, 255
4003612, 148
4003613, 644
4003614, 150
4003615, 64
4003616, 659
4003617, 26
4003618, 603
4003619, 26
4003620, 395
4003621, 666
4003622, 948
4003623, 84
4003624, 320
4003625, 242
4003626, 828
4003627, 125
4003628, 73
4003629, 509
4003630, 965
4003631, 536
4003632, 134
4003633, 742
4003634, 719
4003635, 816
4003636, 531
4003637, 144
4003638, 294
4003639, 676
4003640, 114
4003641, 517
4003642, 407
4003643, 620
4003644, 860
4003645, 251
4003646, 58
4003647, 305
4003648, 601
4003649, 831
4003650, 73
4003651, 824
4003652, 626
4003653, 638
4003654, 823
4003655, 319
4003656, 317
4003657, 623
4003658, 298
4003659, 206
4003660, 233
4003661, 890
4003662, 273
4003663, 263
4003664, 205
4003665, 963
4003666, 575
4003667, 870
4003668, 805
4003669, 223
4003670, 573
4003671, 858
4003672, 29
4003673, 20
4003674, 379
4003675, 441
4003676, 963
4003677, 45
4003678, 527
4003679, 159
4003680, 744
4003681, 76
4003682, 435
4003683, 639
4003684, 63
4003685, 926
4003686, 67
4003687, 984
4003688, 988
4003689, 426
4003690, 988
4003691, 465
4003692, 239
4003693, 329
4003694, 606
4003695, 148
4003696, 310
4003697, 727
4003698, 651
4003699, 438
4003700, 445
4003701, 704
4003702, 901
4003703, 485
4003704, 401
4003705, 747
4003706, 579
4003707, 128
4003708, 216
4003709, 826
4003710, 476
4003711, 674
4003712, 874
4003713, 128
4003714, 33
4003715, 335
4003716, 315
4003717, 921
4003718, 927
4003719, 733
4003720, 30
4003721, 812
4003722, 994
4003723, 652
4003724, 410
4003725, 860
4003726, 611
4003727, 726
4003728, 929
4003729, 482
4003730, 731
4003731, 127
4003732, 84
4003733, 396
4003734, 381
4003735, 589
4003736, 79
4003737, 993
4003738, 335
4003739, 488
4003740, 571
4003741, 186
4003742, 784
4003743, 659
4003744, 542
4003745, 18
4003746, 299
4003747, 977
4003748, 628
4003749, 439
4003750, 187
4003751, 416
4003752, 753
4003753, 750
4003754, 396
4003755, 473
4003756, 92
4003757, 81
4003758, 416
4003759, 989
4003760, 342
4003761, 188
4003762, 911
4003763, 185
4003764, 512
4003765, 908
4003766, 925
4003767, 106
4003768, 952
4003769, 830
4003770, 103
4003771, 553
4003772, 564
4003773, 374
4003774, 541
4003775, 568
4003776, 508
4003777, 100
4003778, 874
4003779, 147
4003780, 252
4003781, 616
4003782, 791
4003783, 456
4003784, 127
4003785, 95
4003786, 515
4003787, 30
4003788, 149
4003789, 74
4003790, 405
4003791, 969
4003792, 285
4003793, 710
4003794, 879
4003795, 276
4003796, 443
4003797, 350
4003798, 925
4003799, 421
4003800, 147
4003801, 235
4003802, 419
4003803, 20
4003804, 211
4003805, 492
4003806, 91
4003807, 899
4003808, 316
4003809, 301
4003810, 156
4003811, 111
4003812, 817
4003813, 884
4003814, 915
4003815, 149
4003816, 263
4003817, 230
4003818, 669
4003819, 317
4003820, 667
4003821, 110
4003822, 242
4003823, 586
4003824, 630
4003825, 246
4003826, 516
4003827, 96
4003828, 164
4003829, 364
4003830, 541
4003831, 116
4003832, 975
4003833, 590
4003834, 228
4003835, 303
4003836, 928
4003837, 429
4003838, 288
4003839, 491
4003840, 319
4003841, 717
4003842, 898
4003843, 307
4003844, 933
4003845, 987
4003846, 119
4003847, 871
4003848, 873
4003849, 29
4003850, 724
4003851, 781
4003852, 983
4003853, 741
4003854, 880
4003855, 873
4003856, 458
4003857, 254
4003858, 404
4003859, 29
4003860, 714
4003861, 701
4003862, 253
4003863, 641
4003864, 846
4003865, 696
4003866, 769
4003867, 916
4003868, 956
4003869, 50
4003870, 893
4003871, 152
4003872, 667
4003873, 229
4003874, 581
4003875, 281
4003876, 631
4003877, 485
4003878, 540
4003879, 902
4003880, 341
4003881, 315
4003882, 670
4003883, 750
4003884, 210
4003885, 40
4003886, 701
4003887, 532
4003888, 911
4003889, 405
4003890, 497
4003891, 771
4003892, 311
4003893, 721
4003894, 214
4003895, 290
4003896, 735
4003897, 394
4003898, 377
4003899, 881
4003900, 637
4003901, 186
4003902, 947
4003903, 138
4003904, 458
4003905, 971
4003906, 828
4003907, 112
4003908, 839
4003909, 891
4003910, 864
4003911, 810
4003912, 651
4003913, 593
4003914, 941
4003915, 360
4003916, 730
4003917, 453
4003918, 707
4003919, 341
4003920, 151
4003921, 979
4003922, 506
4003923, 331
4003924, 867
4003925, 152
4003926, 678
4003927, 345
4003928, 331
4003929, 99
4003930, 846
4003931, 640
4003932, 837
4003933, 5
4003934, 280
4003935, 545
4003936, 306
4003937, 537
4003938, 959
4003939, 408
4003940, 62
4003941, 52
4003942, 813
4003943, 100
4003944, 523
4003945, 37
4003946, 576
4003947, 916
4003948, 961
4003949, 925
4003950, 480
4003951, 346
4003952, 329
4003953, 1
4003954, 799
4003955, 123
4003956, 420
4003957, 410
4003958, 591
4003959, 173
4003960, 568
4003961, 251
4003962, 807
4003963, 48
4003964, 339
4003965, 531
4003966, 718
4003967, 669
4003968, 373
4003969, 213
4003970, 990
4003971, 617
4003972, 914
4003973, 760
4003974, 826
4003975, 770
4003976, 333
4003977, 400
4003978, 951
4003979, 992
4003980, 614
4003981, 873
4003982, 254
4003983, 221
4003984, 364
4003985, 748
4003986, 152
4003987, 37
4003988, 539
4003989, 184
4003990, 376
4003991, 950
4003992, 711
4003993, 322
4003994, 156
4003995, 697
4003996, 679
4003997, 484
4003998, 468
4003999, 871
4004000, 594
